HUN,8,6,178
2,21,0,13,1,24,4,29,5,27,3,21
0,25,2,14,1,28,3,24,5,6,4,12
1,20,2,27,0,7,3,11,5,15,4,7
1,1,0,9,2,12,3,15,4,20,5,29
0,14,2,15,1,5,4,30,5,27,3,17
1,28,0,20,2,4,5,29,4,25,3,14
2,6,0,6,1,1,3,11,5,12,4,2
2,15,1,13,0,13,3,11,5,8,4,11
